(set-logic HORN)
(declare-datatypes ((Nat_0 0)) (((zero_0 ) (succ_0 (p_0 Nat_0)))))
(declare-fun diseqNat_0 (Nat_0 Nat_0) Bool)
(declare-fun op_0 (Nat_0 Nat_0 Nat_0 Nat_0 Nat_0) Bool)
(assert (forall ((x_16 Nat_0))
	(diseqNat_0 zero_0 (succ_0 x_16))))
(assert (forall ((x_17 Nat_0))
	(diseqNat_0 (succ_0 x_17) zero_0)))
(assert (forall ((x_18 Nat_0) (x_19 Nat_0))
	(=> (diseqNat_0 x_18 x_19) (diseqNat_0 (succ_0 x_18) (succ_0 x_19)))))
(assert (forall ((x_4 Nat_0) (x_3 Nat_0) (x_0 Nat_0) (y_0 Nat_0) (x_1 Nat_0))
	(=> (op_0 x_4 x_0 y_0 x_3 (succ_0 x_1)) (op_0 x_4 x_0 y_0 (succ_0 x_3) x_1))))
(assert (forall ((x_6 Nat_0) (x_2 Nat_0) (y_0 Nat_0) (x_1 Nat_0))
	(=> (op_0 x_6 x_2 y_0 y_0 x_1) (op_0 x_6 (succ_0 x_2) y_0 zero_0 x_1))))
(assert (forall ((y_0 Nat_0) (x_1 Nat_0))
	(op_0 x_1 zero_0 y_0 zero_0 x_1)))
(assert (forall ((x_9 Nat_0) (x_10 Nat_0) (a_0 Nat_0) (b_0 Nat_0) (c_0 Nat_0) (d_0 Nat_0))
	(=> (and (diseqNat_0 x_9 x_10) (op_0 x_9 a_0 b_0 c_0 d_0) (op_0 x_10 b_0 a_0 d_0 c_0)) false)))
(check-sat)
(get-model)
